c max 197  198  199  200  201  202  203  204  241  242  243  244  245  246  247  248  249  250  251  252  256  257  261  262 0
c ind 670  681  682  689  696  701  704  705  708  711  712  715  716  719  720  723  726  729  730  733  734  737  740  741  744  745  748  749  752  755  756  759  760  763  764  767  768  769  772  773  775  776  777 0
c This is a CNF SAT formula in the DIMACS CNF format,
c produced with the bc2cnf translator by Tommi Junttila;
c see http://users.ics.aalto.fi/tjunttil/circuits/index.html
c phi_Gamma_det <-> 1
c phi_Gamma <-> 1
c phi_T_feature_det <-> 1
c phi_T_transitions <-> 1
c phi_T_transitions_consistency <-> 1
c phi_T <-> 1
c phi_sim_leaves <-> 1
c phi_sim_transition <-> 1
c phi_sim <-> 1
c FORMULA <-> 1
c pi_1 <-> 2
c pi_0 <-> 135
c tau_1_3_H1_1 <-> 197
c tau_1_3_H1_0 <-> 198
c tau_1_2_H1_1 <-> 199
c tau_1_2_H1_0 <-> 200
c tau_1_1_H1_1 <-> 201
c tau_1_1_H1_0 <-> 202
c tau_1_0_H1_1 <-> 203
c tau_1_0_H1_0 <-> 204
c tau_0_3_H1_1 <-> 241
c tau_0_3_H1_0 <-> 242
c tau_0_3_1 <-> 243
c tau_0_2_H1_1 <-> 244
c tau_0_2_H1_0 <-> 245
c tau_0_2_1 <-> 246
c tau_0_1_H1_1 <-> 247
c tau_0_1_H1_0 <-> 248
c tau_0_1_1 <-> 249
c tau_0_0_H1_1 <-> 250
c tau_0_0_H1_0 <-> 251
c tau_0_0_1 <-> 252
c lam_1_F10 <-> 256
c lam_1_F1 <-> 257
c lam_0_F10 <-> 261
c lam_0_F1 <-> 262
c phi_Gamma_val <-> 664
c F1_P191 <-> 670
c F10_P89 <-> 681
c F1_N8 <-> 682
c F1_P199 <-> 689
c F10_P390 <-> 696
c F1_N1 <-> 701
c F10_P400 <-> 704
c F1_P35 <-> 705
c F1_P92 <-> 708
c F10_P350 <-> 711
c F1_P56 <-> 712
c F10_P100 <-> 715
c F1_P27 <-> 716
c F10_P409 <-> 719
c F1_P67 <-> 720
c F10_P300 <-> 723
c F1_P94 <-> 726
c F10_P380 <-> 729
c F1_P96 <-> 730
c F10_P270 <-> 733
c F1_P15 <-> 734
c F10_P470 <-> 737
c F10_P310 <-> 740
c F1_P89 <-> 741
c F10_P480 <-> 744
c F1_P28 <-> 745
c F10_P150 <-> 748
c F1_P25 <-> 749
c F10_P280 <-> 752
c F10_P459 <-> 755
c F1_P70 <-> 756
c F10_P490 <-> 759
c F1_P42 <-> 760
c F10_P500 <-> 763
c F1_P11 <-> 764
c pi_H1_0 <-> 767
c H1_P0 <-> 767
c F10_P120 <-> 768
c F1_P71 <-> 769
c F10_P190 <-> 772
c F1_P91 <-> 773
c pi_H1_1 <-> 775
c H1_P100 <-> 775
c F10_P290 <-> 776
c F1_P99 <-> 777
p cnf 777 2178
1 0
2 -3 0
2 -19 0
-2 19 3 0
-3 4 0
-3 83 0
3 -83 -4 0
-4 5 0
-4 256 0
4 -256 -5 0
5 -6 0
5 -61 0
-5 61 6 0
6 -7 0
6 -67 0
-6 67 7 0
7 -8 0
7 -125 0
-7 125 8 0
8 -9 0
8 -103 0
-8 103 9 0
9 -10 0
9 -71 0
-9 71 10 0
10 -11 0
10 -88 0
-10 88 11 0
11 -12 0
11 -90 0
-11 90 12 0
12 -13 0
12 -92 0
-12 92 13 0
13 -14 0
13 -75 0
-13 75 14 0
14 -15 0
14 -107 0
-14 107 15 0
15 -16 0
15 -77 0
-15 77 16 0
16 -17 0
16 -109 0
-16 109 17 0
17 -18 0
17 -94 0
-17 94 18 0
18 -112 0
18 -134 0
-18 134 112 0
19 -20 0
19 -29 0
-19 29 20 0
-20 21 0
-20 98 0
20 -98 -21 0
-21 22 0
-21 256 0
21 -256 -22 0
22 -23 0
22 -51 0
-22 51 23 0
23 -24 0
23 -57 0
-23 57 24 0
24 -25 0
24 -119 0
-24 119 25 0
25 -26 0
25 -63 0
-25 63 26 0
26 -27 0
26 -127 0
-26 127 27 0
27 -28 0
27 -131 0
-27 131 28 0
28 -80 0
28 -133 0
-28 133 80 0
29 -30 0
29 -44 0
-29 44 30 0
-30 31 0
-30 114 0
30 -114 -31 0
-31 32 0
-31 256 0
31 -256 -32 0
32 -33 0
32 -53 0
-32 53 33 0
33 -34 0
33 -55 0
-33 55 34 0
34 -35 0
34 -59 0
-34 59 35 0
35 -36 0
35 -121 0
-35 121 36 0
36 -37 0
36 -123 0
-36 123 37 0
37 -38 0
37 -65 0
-37 65 38 0
38 -39 0
38 -69 0
-38 69 39 0
39 -40 0
39 -129 0
-39 129 40 0
40 -41 0
40 -105 0
-40 105 41 0
41 -42 0
41 -73 0
-41 73 42 0
42 -43 0
42 -111 0
-42 111 43 0
43 -79 0
43 -95 0
-43 95 79 0
44 -45 0
44 -81 0
-44 81 45 0
-45 46 0
-45 49 0
45 -49 -46 0
-46 47 0
-46 48 0
46 -48 -47 0
47 197 0
47 -775 0
-47 775 -197 0
48 198 0
48 -767 0
-48 767 -198 0
-49 50 0
-49 257 0
49 -257 -50 0
50 -51 0
50 -52 0
-50 52 51 0
-51 670 0
-51 776 0
51 -776 -670 0
52 -53 0
52 -54 0
-52 54 53 0
-53 670 0
-53 772 0
53 -772 -670 0
54 -55 0
54 -56 0
-54 56 55 0
-55 670 0
-55 681 0
55 -681 -670 0
56 -57 0
56 -58 0
-56 58 57 0
-57 773 0
-57 776 0
57 -776 -773 0
58 -59 0
58 -60 0
-58 60 59 0
-59 681 0
-59 773 0
59 -773 -681 0
60 -61 0
60 -62 0
-60 62 61 0
-61 689 0
-61 696 0
61 -696 -689 0
62 -63 0
62 -64 0
-62 64 63 0
-63 689 0
-63 776 0
63 -776 -689 0
64 -65 0
64 -66 0
-64 66 65 0
-65 689 0
-65 772 0
65 -772 -689 0
66 -67 0
66 -68 0
-66 68 67 0
-67 696 0
-67 777 0
67 -777 -696 0
68 -69 0
68 -70 0
-68 70 69 0
-69 772 0
-69 777 0
69 -777 -772 0
70 -71 0
70 -72 0
-70 72 71 0
-71 708 0
-71 723 0
71 -723 -708 0
72 -73 0
72 -74 0
-72 74 73 0
-73 726 0
-73 772 0
73 -772 -726 0
74 -75 0
74 -76 0
-74 76 75 0
-75 729 0
-75 730 0
75 -730 -729 0
76 -77 0
76 -78 0
-76 78 77 0
-77 740 0
-77 741 0
77 -741 -740 0
78 -79 0
78 -80 0
-78 80 79 0
-79 772 0
-79 773 0
79 -773 -772 0
-80 776 0
-80 777 0
80 -777 -776 0
81 -82 0
81 -96 0
-81 96 82 0
-82 83 0
-82 86 0
82 -86 -83 0
-83 84 0
-83 85 0
83 -85 -84 0
84 199 0
84 -775 0
-84 775 -199 0
85 200 0
85 -767 0
-85 767 -200 0
-86 87 0
-86 257 0
86 -257 -87 0
87 -88 0
87 -89 0
-87 89 88 0
-88 711 0
-88 712 0
88 -712 -711 0
89 -90 0
89 -91 0
-89 91 90 0
-90 719 0
-90 720 0
90 -720 -719 0
91 -92 0
91 -93 0
-91 93 92 0
-92 723 0
-92 769 0
92 -769 -723 0
93 -94 0
93 -95 0
-93 95 94 0
-94 755 0
-94 756 0
94 -756 -755 0
-95 768 0
-95 769 0
95 -769 -768 0
96 -97 0
96 -113 0
-96 113 97 0
-97 98 0
-97 101 0
97 -101 -98 0
-98 99 0
-98 100 0
98 -100 -99 0
99 201 0
99 -775 0
-99 775 -201 0
100 202 0
100 -767 0
-100 767 -202 0
-101 102 0
-101 257 0
101 -257 -102 0
102 -103 0
102 -104 0
-102 104 103 0
-103 704 0
-103 705 0
103 -705 -704 0
104 -105 0
104 -106 0
-104 106 105 0
-105 715 0
-105 716 0
105 -716 -715 0
106 -107 0
106 -108 0
-106 108 107 0
-107 737 0
-107 745 0
107 -745 -737 0
108 -109 0
108 -110 0
-108 110 109 0
-109 744 0
-109 745 0
109 -745 -744 0
110 -111 0
110 -112 0
-110 112 111 0
-111 748 0
-111 749 0
111 -749 -748 0
-112 759 0
-112 760 0
112 -760 -759 0
-113 114 0
-113 117 0
113 -117 -114 0
-114 115 0
-114 116 0
114 -116 -115 0
115 203 0
115 -775 0
-115 775 -203 0
116 204 0
116 -767 0
-116 767 -204 0
-117 118 0
-117 257 0
117 -257 -118 0
118 -119 0
118 -120 0
-118 120 119 0
-119 682 0
-119 776 0
119 -776 -682 0
120 -121 0
120 -122 0
-120 122 121 0
-121 682 0
-121 772 0
121 -772 -682 0
122 -123 0
122 -124 0
-122 124 123 0
-123 681 0
-123 682 0
123 -682 -681 0
124 -125 0
124 -126 0
-124 126 125 0
-125 696 0
-125 701 0
125 -701 -696 0
126 -127 0
126 -128 0
-126 128 127 0
-127 701 0
-127 776 0
127 -776 -701 0
128 -129 0
128 -130 0
-128 130 129 0
-129 701 0
-129 772 0
129 -772 -701 0
130 -131 0
130 -132 0
-130 132 131 0
-131 733 0
-131 734 0
131 -734 -733 0
132 -133 0
132 -134 0
-132 134 133 0
-133 752 0
-133 764 0
133 -764 -752 0
-134 763 0
-134 764 0
134 -764 -763 0
135 -136 0
135 -138 0
-135 138 136 0
135 0
-136 137 0
-136 154 0
136 -154 -137 0
-137 5 0
-137 261 0
137 -261 -5 0
138 -139 0
138 -141 0
-138 141 139 0
-139 140 0
-139 162 0
139 -162 -140 0
-140 22 0
-140 261 0
140 -261 -22 0
141 -142 0
141 -144 0
-141 144 142 0
-142 143 0
-142 169 0
142 -169 -143 0
-143 32 0
-143 261 0
143 -261 -32 0
144 -145 0
144 -152 0
-144 152 145 0
-145 146 0
-145 151 0
145 -151 -146 0
-146 147 0
-146 148 0
146 -148 -147 0
147 241 0
147 -775 0
-147 775 -241 0
-148 149 0
-148 150 0
148 -150 -149 0
149 242 0
149 -767 0
-149 767 -242 0
150 -2 0
150 243 0
-150 -243 2 0
-151 50 0
-151 262 0
151 -262 -50 0
152 -153 0
152 -160 0
-152 160 153 0
-153 154 0
-153 159 0
153 -159 -154 0
-154 155 0
-154 156 0
154 -156 -155 0
155 244 0
155 -775 0
-155 775 -244 0
-156 157 0
-156 158 0
156 -158 -157 0
157 245 0
157 -767 0
-157 767 -245 0
158 -2 0
158 246 0
-158 -246 2 0
-159 87 0
-159 262 0
159 -262 -87 0
160 -161 0
160 -168 0
-160 168 161 0
-161 162 0
-161 167 0
161 -167 -162 0
-162 163 0
-162 164 0
162 -164 -163 0
163 247 0
163 -775 0
-163 775 -247 0
-164 165 0
-164 166 0
164 -166 -165 0
165 248 0
165 -767 0
-165 767 -248 0
166 -2 0
166 249 0
-166 -249 2 0
-167 102 0
-167 262 0
167 -262 -102 0
-168 169 0
-168 174 0
168 -174 -169 0
-169 170 0
-169 171 0
169 -171 -170 0
170 250 0
170 -775 0
-170 775 -250 0
-171 172 0
-171 173 0
171 -173 -172 0
172 251 0
172 -767 0
-172 767 -251 0
173 -2 0
173 252 0
-173 -252 2 0
-174 118 0
-174 262 0
174 -262 -118 0
175 256 0
175 -176 0
-175 176 -256 0
175 0
-176 -197 0
-176 -198 0
176 198 197 0
177 261 0
177 -178 0
-177 178 -261 0
177 0
-178 -241 0
-178 179 0
178 -179 241 0
-179 -242 0
-179 -243 0
179 243 242 0
180 256 0
180 -181 0
-180 181 -256 0
180 0
-181 182 0
-181 185 0
181 -185 -182 0
182 -183 0
182 -184 0
-182 184 183 0
-183 -200 0
-183 199 0
183 -199 200 0
-184 -199 0
-184 200 0
184 -200 199 0
-185 186 0
-185 189 0
185 -189 -186 0
186 -187 0
186 -188 0
-186 188 187 0
-187 -202 0
-187 201 0
187 -201 202 0
-188 -201 0
-188 202 0
188 -202 201 0
189 -190 0
189 -191 0
-189 191 190 0
-190 -204 0
-190 203 0
190 -203 204 0
-191 -203 0
-191 204 0
191 -204 203 0
192 257 0
192 -193 0
-192 193 -257 0
192 0
-193 181 0
-193 194 0
193 -194 -181 0
194 -195 0
194 -196 0
-194 196 195 0
-195 -198 0
-195 197 0
195 -197 198 0
-196 -197 0
-196 198 0
196 -198 197 0
205 261 0
205 -206 0
-205 206 -261 0
205 0
-206 207 0
-206 215 0
206 -215 -207 0
207 -208 0
207 -213 0
-207 213 208 0
208 -209 0
208 -211 0
-208 211 209 0
-209 210 0
-209 244 0
209 -244 -210 0
-210 -245 0
-210 -246 0
210 246 245 0
-211 212 0
-211 245 0
211 -245 -212 0
-212 -244 0
-212 -246 0
212 246 244 0
-213 214 0
-213 246 0
213 -246 -214 0
-214 -244 0
-214 -245 0
214 245 244 0
-215 216 0
-215 224 0
215 -224 -216 0
216 -217 0
216 -222 0
-216 222 217 0
217 -218 0
217 -220 0
-217 220 218 0
-218 219 0
-218 247 0
218 -247 -219 0
-219 -248 0
-219 -249 0
219 249 248 0
-220 221 0
-220 248 0
220 -248 -221 0
-221 -247 0
-221 -249 0
221 249 247 0
-222 223 0
-222 249 0
222 -249 -223 0
-223 -247 0
-223 -248 0
223 248 247 0
224 -225 0
224 -230 0
-224 230 225 0
225 -226 0
225 -228 0
-225 228 226 0
-226 227 0
-226 250 0
226 -250 -227 0
-227 -251 0
-227 -252 0
227 252 251 0
-228 229 0
-228 251 0
228 -251 -229 0
-229 -250 0
-229 -252 0
229 252 250 0
-230 231 0
-230 252 0
230 -252 -231 0
-231 -250 0
-231 -251 0
231 251 250 0
232 262 0
232 -233 0
-232 233 -262 0
232 0
-233 206 0
-233 234 0
233 -234 -206 0
234 -235 0
234 -239 0
-234 239 235 0
235 -236 0
235 -237 0
-235 237 236 0
-236 179 0
-236 241 0
236 -241 -179 0
-237 238 0
-237 242 0
237 -242 -238 0
-238 -241 0
-238 -243 0
238 243 241 0
-239 240 0
-239 243 0
239 -243 -240 0
-240 -241 0
-240 -242 0
240 242 241 0
253 -254 0
253 -255 0
-253 255 254 0
253 0
-254 -257 0
-254 256 0
254 -256 257 0
-255 -256 0
-255 257 0
255 -257 256 0
258 -259 0
258 -260 0
-258 260 259 0
258 0
-259 -262 0
-259 261 0
259 -261 262 0
-260 -261 0
-260 262 0
260 -262 261 0
263 775 0
263 767 0
-263 -767 -775 0
263 0
264 696 0
264 681 0
-264 -681 -696 0
264 0
265 704 0
265 -266 0
-265 266 -704 0
265 0
-266 -696 0
-266 -681 0
266 681 696 0
267 711 0
267 -268 0
-267 268 -711 0
267 0
-268 -681 0
-268 269 0
268 -269 681 0
-269 -696 0
-269 -704 0
269 704 696 0
270 715 0
270 -271 0
-270 271 -715 0
270 0
-271 -681 0
-271 272 0
271 -272 681 0
-272 -696 0
-272 273 0
272 -273 696 0
-273 -704 0
-273 -711 0
273 711 704 0
274 719 0
274 -275 0
-274 275 -719 0
274 0
-275 -681 0
-275 276 0
275 -276 681 0
-276 -696 0
-276 277 0
276 -277 696 0
-277 -704 0
-277 278 0
277 -278 704 0
-278 -711 0
-278 -715 0
278 715 711 0
279 723 0
279 -280 0
-279 280 -723 0
279 0
-280 -681 0
-280 281 0
280 -281 681 0
-281 -696 0
-281 282 0
281 -282 696 0
-282 -704 0
-282 283 0
282 -283 704 0
-283 -711 0
-283 284 0
283 -284 711 0
-284 -715 0
-284 -719 0
284 719 715 0
285 729 0
285 -286 0
-285 286 -729 0
285 0
-286 -681 0
-286 287 0
286 -287 681 0
-287 -696 0
-287 288 0
287 -288 696 0
-288 -704 0
-288 289 0
288 -289 704 0
-289 -711 0
-289 290 0
289 -290 711 0
-290 -715 0
-290 291 0
290 -291 715 0
-291 -719 0
-291 -723 0
291 723 719 0
292 733 0
292 -293 0
-292 293 -733 0
292 0
-293 -681 0
-293 294 0
293 -294 681 0
-294 -696 0
-294 295 0
294 -295 696 0
-295 -704 0
-295 296 0
295 -296 704 0
-296 -711 0
-296 297 0
296 -297 711 0
-297 -715 0
-297 298 0
297 -298 715 0
-298 -719 0
-298 299 0
298 -299 719 0
-299 -723 0
-299 -729 0
299 729 723 0
300 737 0
300 -301 0
-300 301 -737 0
300 0
-301 -681 0
-301 302 0
301 -302 681 0
-302 -696 0
-302 303 0
302 -303 696 0
-303 -704 0
-303 304 0
303 -304 704 0
-304 -711 0
-304 305 0
304 -305 711 0
-305 -715 0
-305 306 0
305 -306 715 0
-306 -719 0
-306 307 0
306 -307 719 0
-307 -723 0
-307 308 0
307 -308 723 0
-308 -729 0
-308 -733 0
308 733 729 0
309 740 0
309 -310 0
-309 310 -740 0
309 0
-310 -681 0
-310 311 0
310 -311 681 0
-311 -696 0
-311 312 0
311 -312 696 0
-312 -704 0
-312 313 0
312 -313 704 0
-313 -711 0
-313 314 0
313 -314 711 0
-314 -715 0
-314 315 0
314 -315 715 0
-315 -719 0
-315 316 0
315 -316 719 0
-316 -723 0
-316 317 0
316 -317 723 0
-317 -729 0
-317 318 0
317 -318 729 0
-318 -733 0
-318 -737 0
318 737 733 0
319 744 0
319 -320 0
-319 320 -744 0
319 0
-320 -681 0
-320 321 0
320 -321 681 0
-321 -696 0
-321 322 0
321 -322 696 0
-322 -704 0
-322 323 0
322 -323 704 0
-323 -711 0
-323 324 0
323 -324 711 0
-324 -715 0
-324 325 0
324 -325 715 0
-325 -719 0
-325 326 0
325 -326 719 0
-326 -723 0
-326 327 0
326 -327 723 0
-327 -729 0
-327 328 0
327 -328 729 0
-328 -733 0
-328 329 0
328 -329 733 0
-329 -737 0
-329 -740 0
329 740 737 0
330 748 0
330 -331 0
-330 331 -748 0
330 0
-331 -681 0
-331 332 0
331 -332 681 0
-332 -696 0
-332 333 0
332 -333 696 0
-333 -704 0
-333 334 0
333 -334 704 0
-334 -711 0
-334 335 0
334 -335 711 0
-335 -715 0
-335 336 0
335 -336 715 0
-336 -719 0
-336 337 0
336 -337 719 0
-337 -723 0
-337 338 0
337 -338 723 0
-338 -729 0
-338 339 0
338 -339 729 0
-339 -733 0
-339 340 0
339 -340 733 0
-340 -737 0
-340 341 0
340 -341 737 0
-341 -740 0
-341 -744 0
341 744 740 0
342 752 0
342 -343 0
-342 343 -752 0
342 0
-343 -681 0
-343 344 0
343 -344 681 0
-344 -696 0
-344 345 0
344 -345 696 0
-345 -704 0
-345 346 0
345 -346 704 0
-346 -711 0
-346 347 0
346 -347 711 0
-347 -715 0
-347 348 0
347 -348 715 0
-348 -719 0
-348 349 0
348 -349 719 0
-349 -723 0
-349 350 0
349 -350 723 0
-350 -729 0
-350 351 0
350 -351 729 0
-351 -733 0
-351 352 0
351 -352 733 0
-352 -737 0
-352 353 0
352 -353 737 0
-353 -740 0
-353 354 0
353 -354 740 0
-354 -744 0
-354 -748 0
354 748 744 0
355 755 0
355 -356 0
-355 356 -755 0
355 0
-356 -681 0
-356 357 0
356 -357 681 0
-357 -696 0
-357 358 0
357 -358 696 0
-358 -704 0
-358 359 0
358 -359 704 0
-359 -711 0
-359 360 0
359 -360 711 0
-360 -715 0
-360 361 0
360 -361 715 0
-361 -719 0
-361 362 0
361 -362 719 0
-362 -723 0
-362 363 0
362 -363 723 0
-363 -729 0
-363 364 0
363 -364 729 0
-364 -733 0
-364 365 0
364 -365 733 0
-365 -737 0
-365 366 0
365 -366 737 0
-366 -740 0
-366 367 0
366 -367 740 0
-367 -744 0
-367 368 0
367 -368 744 0
-368 -748 0
-368 -752 0
368 752 748 0
369 759 0
369 -370 0
-369 370 -759 0
369 0
-370 -681 0
-370 371 0
370 -371 681 0
-371 -696 0
-371 372 0
371 -372 696 0
-372 -704 0
-372 373 0
372 -373 704 0
-373 -711 0
-373 374 0
373 -374 711 0
-374 -715 0
-374 375 0
374 -375 715 0
-375 -719 0
-375 376 0
375 -376 719 0
-376 -723 0
-376 377 0
376 -377 723 0
-377 -729 0
-377 378 0
377 -378 729 0
-378 -733 0
-378 379 0
378 -379 733 0
-379 -737 0
-379 380 0
379 -380 737 0
-380 -740 0
-380 381 0
380 -381 740 0
-381 -744 0
-381 382 0
381 -382 744 0
-382 -748 0
-382 383 0
382 -383 748 0
-383 -752 0
-383 -755 0
383 755 752 0
384 763 0
384 -385 0
-384 385 -763 0
384 0
-385 -681 0
-385 386 0
385 -386 681 0
-386 -696 0
-386 387 0
386 -387 696 0
-387 -704 0
-387 388 0
387 -388 704 0
-388 -711 0
-388 389 0
388 -389 711 0
-389 -715 0
-389 390 0
389 -390 715 0
-390 -719 0
-390 391 0
390 -391 719 0
-391 -723 0
-391 392 0
391 -392 723 0
-392 -729 0
-392 393 0
392 -393 729 0
-393 -733 0
-393 394 0
393 -394 733 0
-394 -737 0
-394 395 0
394 -395 737 0
-395 -740 0
-395 396 0
395 -396 740 0
-396 -744 0
-396 397 0
396 -397 744 0
-397 -748 0
-397 398 0
397 -398 748 0
-398 -752 0
-398 399 0
398 -399 752 0
-399 -755 0
-399 -759 0
399 759 755 0
400 768 0
400 -401 0
-400 401 -768 0
400 0
-401 -681 0
-401 402 0
401 -402 681 0
-402 -696 0
-402 403 0
402 -403 696 0
-403 -704 0
-403 404 0
403 -404 704 0
-404 -711 0
-404 405 0
404 -405 711 0
-405 -715 0
-405 406 0
405 -406 715 0
-406 -719 0
-406 407 0
406 -407 719 0
-407 -723 0
-407 408 0
407 -408 723 0
-408 -729 0
-408 409 0
408 -409 729 0
-409 -733 0
-409 410 0
409 -410 733 0
-410 -737 0
-410 411 0
410 -411 737 0
-411 -740 0
-411 412 0
411 -412 740 0
-412 -744 0
-412 413 0
412 -413 744 0
-413 -748 0
-413 414 0
413 -414 748 0
-414 -752 0
-414 415 0
414 -415 752 0
-415 -755 0
-415 416 0
415 -416 755 0
-416 -759 0
-416 -763 0
416 763 759 0
417 772 0
417 -418 0
-417 418 -772 0
417 0
-418 -681 0
-418 419 0
418 -419 681 0
-419 -696 0
-419 420 0
419 -420 696 0
-420 -704 0
-420 421 0
420 -421 704 0
-421 -711 0
-421 422 0
421 -422 711 0
-422 -715 0
-422 423 0
422 -423 715 0
-423 -719 0
-423 424 0
423 -424 719 0
-424 -723 0
-424 425 0
424 -425 723 0
-425 -729 0
-425 426 0
425 -426 729 0
-426 -733 0
-426 427 0
426 -427 733 0
-427 -737 0
-427 428 0
427 -428 737 0
-428 -740 0
-428 429 0
428 -429 740 0
-429 -744 0
-429 430 0
429 -430 744 0
-430 -748 0
-430 431 0
430 -431 748 0
-431 -752 0
-431 432 0
431 -432 752 0
-432 -755 0
-432 433 0
432 -433 755 0
-433 -759 0
-433 434 0
433 -434 759 0
-434 -763 0
-434 -768 0
434 768 763 0
435 776 0
435 -436 0
-435 436 -776 0
435 0
-436 -681 0
-436 437 0
436 -437 681 0
-437 -696 0
-437 438 0
437 -438 696 0
-438 -704 0
-438 439 0
438 -439 704 0
-439 -711 0
-439 440 0
439 -440 711 0
-440 -715 0
-440 441 0
440 -441 715 0
-441 -719 0
-441 442 0
441 -442 719 0
-442 -723 0
-442 443 0
442 -443 723 0
-443 -729 0
-443 444 0
443 -444 729 0
-444 -733 0
-444 445 0
444 -445 733 0
-445 -737 0
-445 446 0
445 -446 737 0
-446 -740 0
-446 447 0
446 -447 740 0
-447 -744 0
-447 448 0
447 -448 744 0
-448 -748 0
-448 449 0
448 -449 748 0
-449 -752 0
-449 450 0
449 -450 752 0
-450 -755 0
-450 451 0
450 -451 755 0
-451 -759 0
-451 452 0
451 -452 759 0
-452 -763 0
-452 453 0
452 -453 763 0
-453 -768 0
-453 -772 0
453 772 768 0
454 682 0
454 670 0
-454 -670 -682 0
454 0
455 689 0
455 -456 0
-455 456 -689 0
455 0
-456 -682 0
-456 -670 0
456 670 682 0
457 701 0
457 -458 0
-457 458 -701 0
457 0
-458 -670 0
-458 459 0
458 -459 670 0
-459 -682 0
-459 -689 0
459 689 682 0
460 705 0
460 -461 0
-460 461 -705 0
460 0
-461 -670 0
-461 462 0
461 -462 670 0
-462 -682 0
-462 463 0
462 -463 682 0
-463 -689 0
-463 -701 0
463 701 689 0
464 708 0
464 -465 0
-464 465 -708 0
464 0
-465 -670 0
-465 466 0
465 -466 670 0
-466 -682 0
-466 467 0
466 -467 682 0
-467 -689 0
-467 468 0
467 -468 689 0
-468 -701 0
-468 -705 0
468 705 701 0
469 712 0
469 -470 0
-469 470 -712 0
469 0
-470 -670 0
-470 471 0
470 -471 670 0
-471 -682 0
-471 472 0
471 -472 682 0
-472 -689 0
-472 473 0
472 -473 689 0
-473 -701 0
-473 474 0
473 -474 701 0
-474 -705 0
-474 -708 0
474 708 705 0
475 716 0
475 -476 0
-475 476 -716 0
475 0
-476 -670 0
-476 477 0
476 -477 670 0
-477 -682 0
-477 478 0
477 -478 682 0
-478 -689 0
-478 479 0
478 -479 689 0
-479 -701 0
-479 480 0
479 -480 701 0
-480 -705 0
-480 481 0
480 -481 705 0
-481 -708 0
-481 -712 0
481 712 708 0
482 720 0
482 -483 0
-482 483 -720 0
482 0
-483 -670 0
-483 484 0
483 -484 670 0
-484 -682 0
-484 485 0
484 -485 682 0
-485 -689 0
-485 486 0
485 -486 689 0
-486 -701 0
-486 487 0
486 -487 701 0
-487 -705 0
-487 488 0
487 -488 705 0
-488 -708 0
-488 489 0
488 -489 708 0
-489 -712 0
-489 -716 0
489 716 712 0
490 726 0
490 -491 0
-490 491 -726 0
490 0
-491 -670 0
-491 492 0
491 -492 670 0
-492 -682 0
-492 493 0
492 -493 682 0
-493 -689 0
-493 494 0
493 -494 689 0
-494 -701 0
-494 495 0
494 -495 701 0
-495 -705 0
-495 496 0
495 -496 705 0
-496 -708 0
-496 497 0
496 -497 708 0
-497 -712 0
-497 498 0
497 -498 712 0
-498 -716 0
-498 -720 0
498 720 716 0
499 730 0
499 -500 0
-499 500 -730 0
499 0
-500 -670 0
-500 501 0
500 -501 670 0
-501 -682 0
-501 502 0
501 -502 682 0
-502 -689 0
-502 503 0
502 -503 689 0
-503 -701 0
-503 504 0
503 -504 701 0
-504 -705 0
-504 505 0
504 -505 705 0
-505 -708 0
-505 506 0
505 -506 708 0
-506 -712 0
-506 507 0
506 -507 712 0
-507 -716 0
-507 508 0
507 -508 716 0
-508 -720 0
-508 -726 0
508 726 720 0
509 734 0
509 -510 0
-509 510 -734 0
509 0
-510 -670 0
-510 511 0
510 -511 670 0
-511 -682 0
-511 512 0
511 -512 682 0
-512 -689 0
-512 513 0
512 -513 689 0
-513 -701 0
-513 514 0
513 -514 701 0
-514 -705 0
-514 515 0
514 -515 705 0
-515 -708 0
-515 516 0
515 -516 708 0
-516 -712 0
-516 517 0
516 -517 712 0
-517 -716 0
-517 518 0
517 -518 716 0
-518 -720 0
-518 519 0
518 -519 720 0
-519 -726 0
-519 -730 0
519 730 726 0
520 741 0
520 -521 0
-520 521 -741 0
520 0
-521 -670 0
-521 522 0
521 -522 670 0
-522 -682 0
-522 523 0
522 -523 682 0
-523 -689 0
-523 524 0
523 -524 689 0
-524 -701 0
-524 525 0
524 -525 701 0
-525 -705 0
-525 526 0
525 -526 705 0
-526 -708 0
-526 527 0
526 -527 708 0
-527 -712 0
-527 528 0
527 -528 712 0
-528 -716 0
-528 529 0
528 -529 716 0
-529 -720 0
-529 530 0
529 -530 720 0
-530 -726 0
-530 531 0
530 -531 726 0
-531 -730 0
-531 -734 0
531 734 730 0
532 745 0
532 -533 0
-532 533 -745 0
532 0
-533 -670 0
-533 534 0
533 -534 670 0
-534 -682 0
-534 535 0
534 -535 682 0
-535 -689 0
-535 536 0
535 -536 689 0
-536 -701 0
-536 537 0
536 -537 701 0
-537 -705 0
-537 538 0
537 -538 705 0
-538 -708 0
-538 539 0
538 -539 708 0
-539 -712 0
-539 540 0
539 -540 712 0
-540 -716 0
-540 541 0
540 -541 716 0
-541 -720 0
-541 542 0
541 -542 720 0
-542 -726 0
-542 543 0
542 -543 726 0
-543 -730 0
-543 544 0
543 -544 730 0
-544 -734 0
-544 -741 0
544 741 734 0
545 749 0
545 -546 0
-545 546 -749 0
545 0
-546 -670 0
-546 547 0
546 -547 670 0
-547 -682 0
-547 548 0
547 -548 682 0
-548 -689 0
-548 549 0
548 -549 689 0
-549 -701 0
-549 550 0
549 -550 701 0
-550 -705 0
-550 551 0
550 -551 705 0
-551 -708 0
-551 552 0
551 -552 708 0
-552 -712 0
-552 553 0
552 -553 712 0
-553 -716 0
-553 554 0
553 -554 716 0
-554 -720 0
-554 555 0
554 -555 720 0
-555 -726 0
-555 556 0
555 -556 726 0
-556 -730 0
-556 557 0
556 -557 730 0
-557 -734 0
-557 558 0
557 -558 734 0
-558 -741 0
-558 -745 0
558 745 741 0
559 756 0
559 -560 0
-559 560 -756 0
559 0
-560 -670 0
-560 561 0
560 -561 670 0
-561 -682 0
-561 562 0
561 -562 682 0
-562 -689 0
-562 563 0
562 -563 689 0
-563 -701 0
-563 564 0
563 -564 701 0
-564 -705 0
-564 565 0
564 -565 705 0
-565 -708 0
-565 566 0
565 -566 708 0
-566 -712 0
-566 567 0
566 -567 712 0
-567 -716 0
-567 568 0
567 -568 716 0
-568 -720 0
-568 569 0
568 -569 720 0
-569 -726 0
-569 570 0
569 -570 726 0
-570 -730 0
-570 571 0
570 -571 730 0
-571 -734 0
-571 572 0
571 -572 734 0
-572 -741 0
-572 573 0
572 -573 741 0
-573 -745 0
-573 -749 0
573 749 745 0
574 760 0
574 -575 0
-574 575 -760 0
574 0
-575 -670 0
-575 576 0
575 -576 670 0
-576 -682 0
-576 577 0
576 -577 682 0
-577 -689 0
-577 578 0
577 -578 689 0
-578 -701 0
-578 579 0
578 -579 701 0
-579 -705 0
-579 580 0
579 -580 705 0
-580 -708 0
-580 581 0
580 -581 708 0
-581 -712 0
-581 582 0
581 -582 712 0
-582 -716 0
-582 583 0
582 -583 716 0
-583 -720 0
-583 584 0
583 -584 720 0
-584 -726 0
-584 585 0
584 -585 726 0
-585 -730 0
-585 586 0
585 -586 730 0
-586 -734 0
-586 587 0
586 -587 734 0
-587 -741 0
-587 588 0
587 -588 741 0
-588 -745 0
-588 589 0
588 -589 745 0
-589 -749 0
-589 -756 0
589 756 749 0
590 764 0
590 -591 0
-590 591 -764 0
590 0
-591 -670 0
-591 592 0
591 -592 670 0
-592 -682 0
-592 593 0
592 -593 682 0
-593 -689 0
-593 594 0
593 -594 689 0
-594 -701 0
-594 595 0
594 -595 701 0
-595 -705 0
-595 596 0
595 -596 705 0
-596 -708 0
-596 597 0
596 -597 708 0
-597 -712 0
-597 598 0
597 -598 712 0
-598 -716 0
-598 599 0
598 -599 716 0
-599 -720 0
-599 600 0
599 -600 720 0
-600 -726 0
-600 601 0
600 -601 726 0
-601 -730 0
-601 602 0
601 -602 730 0
-602 -734 0
-602 603 0
602 -603 734 0
-603 -741 0
-603 604 0
603 -604 741 0
-604 -745 0
-604 605 0
604 -605 745 0
-605 -749 0
-605 606 0
605 -606 749 0
-606 -756 0
-606 -760 0
606 760 756 0
607 769 0
607 -608 0
-607 608 -769 0
607 0
-608 -670 0
-608 609 0
608 -609 670 0
-609 -682 0
-609 610 0
609 -610 682 0
-610 -689 0
-610 611 0
610 -611 689 0
-611 -701 0
-611 612 0
611 -612 701 0
-612 -705 0
-612 613 0
612 -613 705 0
-613 -708 0
-613 614 0
613 -614 708 0
-614 -712 0
-614 615 0
614 -615 712 0
-615 -716 0
-615 616 0
615 -616 716 0
-616 -720 0
-616 617 0
616 -617 720 0
-617 -726 0
-617 618 0
617 -618 726 0
-618 -730 0
-618 619 0
618 -619 730 0
-619 -734 0
-619 620 0
619 -620 734 0
-620 -741 0
-620 621 0
620 -621 741 0
-621 -745 0
-621 622 0
621 -622 745 0
-622 -749 0
-622 623 0
622 -623 749 0
-623 -756 0
-623 624 0
623 -624 756 0
-624 -760 0
-624 -764 0
624 764 760 0
625 773 0
625 -626 0
-625 626 -773 0
625 0
-626 -670 0
-626 627 0
626 -627 670 0
-627 -682 0
-627 628 0
627 -628 682 0
-628 -689 0
-628 629 0
628 -629 689 0
-629 -701 0
-629 630 0
629 -630 701 0
-630 -705 0
-630 631 0
630 -631 705 0
-631 -708 0
-631 632 0
631 -632 708 0
-632 -712 0
-632 633 0
632 -633 712 0
-633 -716 0
-633 634 0
633 -634 716 0
-634 -720 0
-634 635 0
634 -635 720 0
-635 -726 0
-635 636 0
635 -636 726 0
-636 -730 0
-636 637 0
636 -637 730 0
-637 -734 0
-637 638 0
637 -638 734 0
-638 -741 0
-638 639 0
638 -639 741 0
-639 -745 0
-639 640 0
639 -640 745 0
-640 -749 0
-640 641 0
640 -641 749 0
-641 -756 0
-641 642 0
641 -642 756 0
-642 -760 0
-642 643 0
642 -643 760 0
-643 -764 0
-643 -769 0
643 769 764 0
644 777 0
644 -645 0
-644 645 -777 0
644 0
-645 -670 0
-645 646 0
645 -646 670 0
-646 -682 0
-646 647 0
646 -647 682 0
-647 -689 0
-647 648 0
647 -648 689 0
-648 -701 0
-648 649 0
648 -649 701 0
-649 -705 0
-649 650 0
649 -650 705 0
-650 -708 0
-650 651 0
650 -651 708 0
-651 -712 0
-651 652 0
651 -652 712 0
-652 -716 0
-652 653 0
652 -653 716 0
-653 -720 0
-653 654 0
653 -654 720 0
-654 -726 0
-654 655 0
654 -655 726 0
-655 -730 0
-655 656 0
655 -656 730 0
-656 -734 0
-656 657 0
656 -657 734 0
-657 -741 0
-657 658 0
657 -658 741 0
-658 -745 0
-658 659 0
658 -659 745 0
-659 -749 0
-659 660 0
659 -660 749 0
-660 -756 0
-660 661 0
660 -661 756 0
-661 -760 0
-661 662 0
661 -662 760 0
-662 -764 0
-662 663 0
662 -663 764 0
-663 -769 0
-663 -773 0
663 773 769 0
664 -665 0
664 -666 0
-664 666 665 0
664 0
-665 51 0
-665 767 0
665 -767 -51 0
666 -667 0
666 -668 0
-666 668 667 0
-667 53 0
-667 767 0
667 -767 -53 0
668 -669 0
668 -671 0
-668 671 669 0
-669 55 0
-669 767 0
669 -767 -55 0
671 -672 0
671 -673 0
-671 673 672 0
-672 57 0
-672 775 0
672 -775 -57 0
673 -674 0
673 -675 0
-673 675 674 0
-674 59 0
-674 767 0
674 -767 -59 0
675 -676 0
675 -677 0
-675 677 676 0
-676 119 0
-676 767 0
676 -767 -119 0
677 -678 0
677 -679 0
-677 679 678 0
-678 121 0
-678 767 0
678 -767 -121 0
679 -680 0
679 -683 0
-679 683 680 0
-680 123 0
-680 767 0
680 -767 -123 0
683 -684 0
683 -685 0
-683 685 684 0
-684 61 0
-684 775 0
684 -775 -61 0
685 -686 0
685 -687 0
-685 687 686 0
-686 63 0
-686 767 0
686 -767 -63 0
687 -688 0
687 -690 0
-687 690 688 0
-688 65 0
-688 767 0
688 -767 -65 0
690 -691 0
690 -692 0
-690 692 691 0
-691 67 0
-691 775 0
691 -775 -67 0
692 -693 0
692 -694 0
-692 694 693 0
-693 69 0
-693 775 0
693 -775 -69 0
694 -695 0
694 -697 0
-694 697 695 0
-695 125 0
-695 767 0
695 -767 -125 0
697 -698 0
697 -699 0
-697 699 698 0
-698 127 0
-698 767 0
698 -767 -127 0
699 -700 0
699 -702 0
-699 702 700 0
-700 129 0
-700 767 0
700 -767 -129 0
702 -703 0
702 -706 0
-702 706 703 0
-703 103 0
-703 775 0
703 -775 -103 0
706 -707 0
706 -709 0
-706 709 707 0
-707 71 0
-707 775 0
707 -775 -71 0
709 -710 0
709 -713 0
-709 713 710 0
-710 88 0
-710 775 0
710 -775 -88 0
713 -714 0
713 -717 0
-713 717 714 0
-714 105 0
-714 767 0
714 -767 -105 0
717 -718 0
717 -721 0
-717 721 718 0
-718 90 0
-718 775 0
718 -775 -90 0
721 -722 0
721 -724 0
-721 724 722 0
-722 92 0
-722 775 0
722 -775 -92 0
724 -725 0
724 -727 0
-724 727 725 0
-725 73 0
-725 775 0
725 -775 -73 0
727 -728 0
727 -731 0
-727 731 728 0
-728 75 0
-728 775 0
728 -775 -75 0
731 -732 0
731 -735 0
-731 735 732 0
-732 131 0
-732 767 0
732 -767 -131 0
735 -736 0
735 -738 0
-735 738 736 0
-736 107 0
-736 775 0
736 -775 -107 0
738 -739 0
738 -742 0
-738 742 739 0
-739 77 0
-739 775 0
739 -775 -77 0
742 -743 0
742 -746 0
-742 746 743 0
-743 109 0
-743 775 0
743 -775 -109 0
746 -747 0
746 -750 0
-746 750 747 0
-747 111 0
-747 767 0
747 -767 -111 0
750 -751 0
750 -753 0
-750 753 751 0
-751 133 0
-751 767 0
751 -767 -133 0
753 -754 0
753 -757 0
-753 757 754 0
-754 94 0
-754 775 0
754 -775 -94 0
757 -758 0
757 -761 0
-757 761 758 0
-758 112 0
-758 775 0
758 -775 -112 0
761 -762 0
761 -765 0
-761 765 762 0
-762 134 0
-762 775 0
762 -775 -134 0
765 -766 0
765 -770 0
-765 770 766 0
-766 95 0
-766 767 0
766 -767 -95 0
770 -771 0
770 -774 0
-770 774 771 0
-771 79 0
-771 775 0
771 -775 -79 0
-774 80 0
-774 775 0
774 -775 -80 0
